Version identifier: 22.1.0.0 | 2022-03-09 | 1a383f8ce
CPXPARAM_Threads                                 1
CPXPARAM_MIP_Strategy_VariableSelect             3
CPXPARAM_TimeLimit                               599.99998772900005
1 of 1 MIP starts provided solutions.
MIP start 'm1' defined initial solution with objective 1.0000.
Tried aggregator 1 time.
MIP Presolve eliminated 12 rows and 0 columns.
MIP Presolve modified 39 coefficients.
Reduced MIP has 1508 rows, 6000 columns, and 104391 nonzeros.
Reduced MIP has 6000 binaries, 0 generals, 0 SOSs, and 0 indicators.
Presolve time = 0.10 sec. (161.46 ticks)
Probing time = 0.02 sec. (18.14 ticks)
Tried aggregator 1 time.
Detecting symmetries...
MIP Presolve modified 11 coefficients.
Reduced MIP has 1508 rows, 6000 columns, and 104630 nonzeros.
Reduced MIP has 6000 binaries, 0 generals, 0 SOSs, and 0 indicators.
Presolve time = 0.10 sec. (153.85 ticks)
Probing time = 0.02 sec. (18.17 ticks)
Clique table members: 895.
MIP emphasis: balance optimality and feasibility.
MIP search method: dynamic search.
Parallel mode: none, using 1 thread.
Root relaxation solution time = 0.74 sec. (956.45 ticks)

        Nodes                                         Cuts/
   Node  Left     Objective  IInf  Best Integer    Best Bound    ItCnt     Gap

*     0+    0                            1.0000    45150.0000              --- 
      0     0      300.0000   963        1.0000      300.0000     3664     --- 
*     0+    0                          300.0000      300.0000             0.00%
      0     0        cutoff            300.0000      300.0000     3664    0.00%
Elapsed time = 5.37 sec. (6487.19 ticks, tree = 0.01 MB, solutions = 2)

Root node processing (before b&c):
  Real time             =    5.37 sec. (6487.42 ticks)
Sequential b&c:
  Real time             =    0.00 sec. (0.00 ticks)
                          ------------
Total (root+branch&cut) =    5.37 sec. (6487.42 ticks)
16
18
10
15
15
12
5
10
8
10
4
8
10
5
10
17
5
10
8
10
15
8
10
0
3
15
5
2
5
4
2
5
15
13
4
15
13
15
5
12
15
0
7
0
4
7
0
10
18
10
4
18
10
5
2
15
0
10
5
12
10
5
15
0
17
15
0
7
5
11
7
5
10
5
12
15
5
2
5
15
3
5
15
13
15
4
0
2
0
10
7
4
0
7
5
10
17
5
10
15
8
10
6
7
10
5
7
1
15
7
0
15
8
11
10
18
15
0
15
3
5
15
13
15
10
1
10
8
15
10
5
3
15
0
10
18
15
10
0
15
14
15
15
13
15
5
12
15
0
7
0
4
15
13
15
5
12
10
5
7
0
4
7
0
15
13
4
10
18
15
0
3
10
5
7
0
10
17
5
10
5
7
10
16
2
5
10
7
1
15
18
10
10
1
7
0
15
7
0
4
5
2
15
5
10
6
15
2
5
10
8
4
10
8
15
0
4
15
0
2
5
4
2
0
15
18
10
15
1
2
5
15
2
6
15
0
2
10
6
7
0
15
2
5
4
13
15
15
0
7
6
10
7
0
15
9
10
15
8
10
15
14
15
5
10
7
6
10
8
15
10
6
7
0
15
10
9
10
5
7
10
5
17
0
15
7
0
15
8
11
15
18
10
15
14
15
15
0
7
6
Primal:	300
Dual:	300
Status:	Optimal
Time:	5.37
